Instance name: /mnt/c/Users/ORG/CLionProjects/uMV-FSTSP/Murray_Chu_2015_test_data/FSTSP/FSTSP_10_customer_problems/20140810T123440v5

drone speed: 0.4 miles/minute
uav non-eligible customer: 4 5 
Printing number of nodes: 11

Set parameter Threads to value 20
Gurobi Optimizer version 11.0.0 build v11.0.0rc2 (linux64 - "Ubuntu 22.04.3 LTS")

CPU model: 13th Gen Intel(R) Core(TM) i5-13500, instruction set [SSE2|AVX|AVX2]
Thread count: 10 physical cores, 20 logical processors, using up to 20 threads

Optimize a model with 6346 rows, 1825 columns and 197322 nonzeros
Model fingerprint: 0x77a206d3
Variable types: 11 continuous, 1814 integer (1814 binary)
Coefficient statistics:
  Matrix range     [1e+00, 2e+01]
  Objective range  [1e+00, 2e+01]
  Bounds range     [1e+00, 1e+00]
  RHS range        [1e+00, 8e+00]
Found heuristic solution: objective 105.2519528
Presolve removed 944 rows and 761 columns
Presolve time: 0.35s
Presolved: 5402 rows, 1064 columns, 152680 nonzeros
Variable types: 8 continuous, 1056 integer (1056 binary)

Root relaxation: objective 4.242422e+01, 2038 iterations, 0.12 seconds (0.33 work units)

    Nodes    |    Current Node    |     Objective Bounds      |     Work
 Expl Unexpl |  Obj  Depth IntInf | Incumbent    BestBd   Gap | It/Node Time

     0     0   42.42422    0   90  105.25195   42.42422  59.7%     -    0s
H    0     0                      74.2941425   42.42422  42.9%     -    0s
H    0     0                      66.9663310   42.42422  36.6%     -    0s
H    0     0                      66.6405895   42.42422  36.3%     -    0s
H    0     0                      55.5341419   42.43124  23.6%     -    0s
     0     0   42.53313    0   78   55.53414   42.53313  23.4%     -    0s
H    0     0                      51.9023973   42.53313  18.1%     -    0s
     0     0   42.54769    0   92   51.90240   42.54769  18.0%     -    0s
H    0     0                      49.1707456   42.57834  13.4%     -    0s
     0     0   42.57834    0   94   49.17075   42.57834  13.4%     -    0s
     0     0   42.79868    0  131   49.17075   42.79868  13.0%     -    1s
     0     0   42.79868    0  132   49.17075   42.79868  13.0%     -    1s
     0     0   42.79868    0  137   49.17075   42.79868  13.0%     -    1s
     0     0   42.79868    0  140   49.17075   42.79868  13.0%     -    1s
     0     0   42.79868    0  142   49.17075   42.79868  13.0%     -    1s
H    0     0                      48.5186678   42.79868  11.8%     -    1s
     0     0   42.79868    0  150   48.51867   42.79868  11.8%     -    1s
     0     0   42.79868    0  143   48.51867   42.79868  11.8%     -    1s
H    0     0                      48.4356763   42.79868  11.6%     -    1s
     0     0   42.79868    0  143   48.43568   42.79868  11.6%     -    1s
     0     0   42.79868    0   86   48.43568   42.79868  11.6%     -    2s
     0     0   42.79868    0  100   48.43568   42.79868  11.6%     -    2s
     0     0   42.79868    0  105   48.43568   42.79868  11.6%     -    2s
     0     0   42.79868    0  137   48.43568   42.79868  11.6%     -    2s
     0     0   42.79868    0  135   48.43568   42.79868  11.6%     -    2s
     0     0   42.79868    0  132   48.43568   42.79868  11.6%     -    2s
H    0     0                      48.2891310   42.79868  11.4%     -    2s
     0     0   42.79868    0  133   48.28913   42.79868  11.4%     -    2s
     0     0   42.79868    0  139   48.28913   42.79868  11.4%     -    3s
     0     0   42.79868    0  140   48.28913   42.79868  11.4%     -    3s
     0     0   42.79868    0  143   48.28913   42.79868  11.4%     -    3s
H    0     0                      47.6192045   42.79868  10.1%     -    3s
     0     0   42.79868    0  145   47.61920   42.79868  10.1%     -    3s
     0     0   42.79868    0  144   47.61920   42.79868  10.1%     -    3s
     0     0   42.79868    0  144   47.61920   42.79868  10.1%     -    3s
     0     0   42.79868    0  142   47.61920   42.79868  10.1%     -    3s
     0     2   42.79868    0  142   47.61920   42.79868  10.1%     -    3s
H   47    48                      46.0447482   42.79868  7.05%   222    4s
    91    83   42.96549    7   96   46.04475   42.79868  7.05%   203    5s
H   95    83                      45.6578550   42.79868  6.26%   198    5s
H   95    83                      45.4555430   42.79868  5.84%   198    5s

Cutting planes:
  Gomory: 12
  Cover: 3
  MIR: 14
  Inf proof: 3
  Zero half: 32
  RLT: 12

Explored 1097 nodes (77547 simplex iterations) in 7.48 seconds (10.45 work units)
Thread count was 20 (of 20 available processors)

Solution count 10: 45.4555 45.6579 46.0447 ... 55.5341

Optimal solution found (tolerance 1.00e-04)
Best objective 4.545554300294e+01, best bound 4.545554300294e+01, gap 0.0000%
